50
150
100
99
96
95
93
91
91
88
87
87
85
85
85
84
83
83
78
77
76
75
74
70
67
65
63
63
62
60
60
58
56
55
55
54
52
50
49
49
45
42
29
29
27
27
26
25
24
23
22
20
